p cnf 695 1975
17 26 0 
-17 -26 0 
35 44 0 
-35 -44 0 
140 142 144 146 0 
-140 -142 0 
-140 -144 0 
-140 -146 0 
-142 -144 0 
-142 -146 0 
-144 -146 0 
156 158 160 162 0 
-156 -158 0 
-156 -160 0 
-156 -162 0 
-158 -160 0 
-158 -162 0 
-160 -162 0 
172 174 176 178 0 
-172 -174 0 
-172 -176 0 
-172 -178 0 
-174 -176 0 
-174 -178 0 
-176 -178 0 
180 182 184 186 0 
-180 -182 0 
-180 -184 0 
-180 -186 0 
-182 -184 0 
-182 -186 0 
-184 -186 0 
-17 -536 264 0 
-17 -536 -264 0 
-264 -537 273 0 
-264 -537 -273 0 
-17 -538 274 0 
-17 -538 -264 0 
-264 -539 283 0 
-264 -539 -273 0 
-26 -540 264 0 
-26 -540 -274 0 
-274 -541 273 0 
-274 -541 -283 0 
-26 -542 274 0 
-26 -542 -274 0 
-274 -543 283 0 
-274 -543 -283 0 
-35 -544 284 0 
-35 -544 -284 0 
-284 -545 293 0 
-284 -545 -293 0 
-35 -546 294 0 
-35 -546 -284 0 
-284 -547 303 0 
-284 -547 -293 0 
-44 -548 284 0 
-44 -548 -294 0 
-294 -549 293 0 
-294 -549 -303 0 
-44 -550 294 0 
-44 -550 -294 0 
-294 -551 303 0 
-294 -551 -303 0 
-17 -552 264 0 
-17 -552 -264 0 
-264 -553 273 0 
-264 -553 -273 0 
-17 -554 274 0 
-17 -554 -264 0 
-264 -555 283 0 
-264 -555 -273 0 
-26 -556 264 0 
-26 -556 -274 0 
-274 -557 273 0 
-274 -557 -283 0 
-26 -558 274 0 
-26 -558 -274 0 
-274 -559 283 0 
-274 -559 -283 0 
-35 -560 284 0 
-35 -560 -284 0 
-284 -561 293 0 
-284 -561 -293 0 
-35 -562 294 0 
-35 -562 -284 0 
-284 -563 303 0 
-284 -563 -293 0 
-44 -564 284 0 
-44 -564 -294 0 
-294 -565 293 0 
-294 -565 -303 0 
-44 -566 294 0 
-44 -566 -294 0 
-294 -567 303 0 
-294 -567 -303 0 
-17 -568 364 0 
-17 -568 -304 0 
-264 -569 381 0 
-264 -569 -309 0 
-17 -570 364 0 
-17 -570 -310 0 
-264 -571 381 0 
-264 -571 -315 0 
-17 -572 364 0 
-17 -572 -316 0 
-264 -573 381 0 
-264 -573 -321 0 
-17 -574 364 0 
-17 -574 -322 0 
-264 -575 381 0 
-264 -575 -327 0 
-26 -576 364 0 
-26 -576 -328 0 
-274 -577 381 0 
-274 -577 -333 0 
-26 -578 364 0 
-26 -578 -334 0 
-274 -579 381 0 
-274 -579 -339 0 
-26 -580 364 0 
-26 -580 -340 0 
-274 -581 381 0 
-274 -581 -345 0 
-26 -582 364 0 
-26 -582 -346 0 
-274 -583 381 0 
-274 -583 -351 0 
-35 -584 382 0 
-35 -584 -304 0 
-284 -585 399 0 
-284 -585 -309 0 
-35 -586 382 0 
-35 -586 -310 0 
-284 -587 399 0 
-284 -587 -315 0 
-35 -588 382 0 
-35 -588 -316 0 
-284 -589 399 0 
-284 -589 -321 0 
-35 -590 382 0 
-35 -590 -322 0 
-284 -591 399 0 
-284 -591 -327 0 
-44 -592 382 0 
-44 -592 -328 0 
-294 -593 399 0 
-294 -593 -333 0 
-44 -594 382 0 
-44 -594 -334 0 
-294 -595 399 0 
-294 -595 -339 0 
-44 -596 382 0 
-44 -596 -340 0 
-294 -597 399 0 
-294 -597 -345 0 
-44 -598 382 0 
-44 -598 -346 0 
-294 -599 399 0 
-294 -599 -351 0 
-17 -600 304 0 
-17 -600 -364 0 
-264 -601 309 0 
-264 -601 -381 0 
-17 -602 310 0 
-17 -602 -364 0 
-264 -603 315 0 
-264 -603 -381 0 
-17 -604 316 0 
-17 -604 -364 0 
-264 -605 321 0 
-264 -605 -381 0 
-17 -606 322 0 
-17 -606 -364 0 
-264 -607 327 0 
-264 -607 -381 0 
-26 -608 328 0 
-26 -608 -364 0 
-274 -609 333 0 
-274 -609 -381 0 
-26 -610 334 0 
-26 -610 -364 0 
-274 -611 339 0 
-274 -611 -381 0 
-26 -612 340 0 
-26 -612 -364 0 
-274 -613 345 0 
-274 -613 -381 0 
-26 -614 346 0 
-26 -614 -364 0 
-274 -615 351 0 
-274 -615 -381 0 
-35 -616 304 0 
-35 -616 -382 0 
-284 -617 309 0 
-284 -617 -399 0 
-35 -618 310 0 
-35 -618 -382 0 
-284 -619 315 0 
-284 -619 -399 0 
-35 -620 316 0 
-35 -620 -382 0 
-284 -621 321 0 
-284 -621 -399 0 
-35 -622 322 0 
-35 -622 -382 0 
-284 -623 327 0 
-284 -623 -399 0 
-44 -624 328 0 
-44 -624 -382 0 
-294 -625 333 0 
-294 -625 -399 0 
-44 -626 334 0 
-44 -626 -382 0 
-294 -627 339 0 
-294 -627 -399 0 
-44 -628 340 0 
-44 -628 -382 0 
-294 -629 345 0 
-294 -629 -399 0 
-44 -630 346 0 
-44 -630 -382 0 
-294 -631 351 0 
-294 -631 -399 0 
-132 -632 496 0 
-132 -632 -400 0 
-400 -633 505 0 
-400 -633 -402 0 
-134 -634 496 0 
-134 -634 -403 0 
-403 -635 505 0 
-403 -635 -405 0 
-136 -636 496 0 
-136 -636 -406 0 
-406 -637 505 0 
-406 -637 -408 0 
-138 -638 496 0 
-138 -638 -409 0 
-409 -639 505 0 
-409 -639 -411 0 
-140 -640 496 0 
-140 -640 -412 0 
-412 -641 505 0 
-412 -641 -414 0 
-142 -642 496 0 
-142 -642 -415 0 
-415 -643 505 0 
-415 -643 -417 0 
-144 -644 496 0 
-144 -644 -418 0 
-418 -645 505 0 
-418 -645 -420 0 
-146 -646 496 0 
-146 -646 -421 0 
-421 -647 505 0 
-421 -647 -423 0 
-148 -648 506 0 
-148 -648 -424 0 
-424 -649 515 0 
-424 -649 -426 0 
-150 -650 506 0 
-150 -650 -427 0 
-427 -651 515 0 
-427 -651 -429 0 
-152 -652 506 0 
-152 -652 -430 0 
-430 -653 515 0 
-430 -653 -432 0 
-154 -654 506 0 
-154 -654 -433 0 
-433 -655 515 0 
-433 -655 -435 0 
-156 -656 506 0 
-156 -656 -436 0 
-436 -657 515 0 
-436 -657 -438 0 
-158 -658 506 0 
-158 -658 -439 0 
-439 -659 515 0 
-439 -659 -441 0 
-160 -660 506 0 
-160 -660 -442 0 
-442 -661 515 0 
-442 -661 -444 0 
-162 -662 506 0 
-162 -662 -445 0 
-445 -663 515 0 
-445 -663 -447 0 
-164 -664 516 0 
-164 -664 -448 0 
-448 -665 525 0 
-448 -665 -450 0 
-166 -666 516 0 
-166 -666 -451 0 
-451 -667 525 0 
-451 -667 -453 0 
-168 -668 516 0 
-168 -668 -454 0 
-454 -669 525 0 
-454 -669 -456 0 
-170 -670 516 0 
-170 -670 -457 0 
-457 -671 525 0 
-457 -671 -459 0 
-172 -672 516 0 
-172 -672 -460 0 
-460 -673 525 0 
-460 -673 -462 0 
-174 -674 516 0 
-174 -674 -463 0 
-463 -675 525 0 
-463 -675 -465 0 
-176 -676 516 0 
-176 -676 -466 0 
-466 -677 525 0 
-466 -677 -468 0 
-178 -678 516 0 
-178 -678 -469 0 
-469 -679 525 0 
-469 -679 -471 0 
-180 -680 526 0 
-180 -680 -472 0 
-472 -681 535 0 
-472 -681 -474 0 
-182 -682 526 0 
-182 -682 -475 0 
-475 -683 535 0 
-475 -683 -477 0 
-184 -684 526 0 
-184 -684 -478 0 
-478 -685 535 0 
-478 -685 -480 0 
-186 -686 526 0 
-186 -686 -481 0 
-481 -687 535 0 
-481 -687 -483 0 
-188 -688 526 0 
-188 -688 -484 0 
-484 -689 535 0 
-484 -689 -486 0 
-190 -690 526 0 
-190 -690 -487 0 
-487 -691 535 0 
-487 -691 -489 0 
-192 -692 526 0 
-192 -692 -490 0 
-490 -693 535 0 
-490 -693 -492 0 
-194 -694 526 0 
-194 -694 -493 0 
-493 -695 535 0 
-493 -695 -495 0 
-1 232 0 
1 -232 0 
-232 233 0 
232 -233 0 
-2 234 0 
2 -234 0 
-234 235 0 
234 -235 0 
-3 236 0 
3 -236 0 
-236 237 0 
236 -237 0 
-4 238 0 
4 -238 0 
-238 239 0 
238 -239 0 
-5 240 0 
5 -240 0 
-240 241 0 
240 -241 0 
-6 242 0 
6 -242 0 
-242 243 0 
242 -243 0 
-7 244 0 
7 -244 0 
-244 245 0 
244 -245 0 
-8 246 0 
8 -246 0 
-246 247 0 
246 -247 0 
-9 248 0 
9 -248 0 
-248 249 0 
248 -249 0 
-10 250 0 
10 -250 0 
-250 251 0 
250 -251 0 
-11 252 0 
11 -252 0 
-252 253 0 
252 -253 0 
-12 254 0 
12 -254 0 
-254 255 0 
254 -255 0 
-13 256 0 
13 -256 0 
-256 257 0 
256 -257 0 
-14 258 0 
14 -258 0 
-258 259 0 
258 -259 0 
-15 260 0 
15 -260 0 
-260 261 0 
260 -261 0 
-16 262 0 
16 -262 0 
-262 263 0 
262 -263 0 
-17 -536 18 0 
-18 17 0 
-18 536 0 
-17 -538 19 0 
-19 17 0 
-19 538 0 
-17 -552 20 0 
-20 17 0 
-20 552 0 
-17 -554 21 0 
-21 17 0 
-21 554 0 
18 19 20 21 -17 264 0 
-17 -536 22 0 
-22 17 0 
-22 536 0 
-26 -540 23 0 
-23 26 0 
-23 540 0 
-17 -552 24 0 
-24 17 0 
-24 552 0 
-26 -556 25 0 
-25 26 0 
-25 556 0 
22 23 24 25 17 -264 0 
-264 -537 265 0 
-265 264 0 
-265 537 0 
-264 -539 266 0 
-266 264 0 
-266 539 0 
-264 -553 267 0 
-267 264 0 
-267 553 0 
-264 -555 268 0 
-268 264 0 
-268 555 0 
265 266 267 268 -264 273 0 
-264 -537 269 0 
-269 264 0 
-269 537 0 
-274 -541 270 0 
-270 274 0 
-270 541 0 
-264 -553 271 0 
-271 264 0 
-271 553 0 
-274 -557 272 0 
-272 274 0 
-272 557 0 
269 270 271 272 264 -273 0 
-26 -540 27 0 
-27 26 0 
-27 540 0 
-26 -542 28 0 
-28 26 0 
-28 542 0 
-26 -556 29 0 
-29 26 0 
-29 556 0 
-26 -558 30 0 
-30 26 0 
-30 558 0 
27 28 29 30 -26 274 0 
-17 -538 31 0 
-31 17 0 
-31 538 0 
-26 -542 32 0 
-32 26 0 
-32 542 0 
-17 -554 33 0 
-33 17 0 
-33 554 0 
-26 -558 34 0 
-34 26 0 
-34 558 0 
31 32 33 34 26 -274 0 
-274 -541 275 0 
-275 274 0 
-275 541 0 
-274 -543 276 0 
-276 274 0 
-276 543 0 
-274 -557 277 0 
-277 274 0 
-277 557 0 
-274 -559 278 0 
-278 274 0 
-278 559 0 
275 276 277 278 -274 283 0 
-264 -539 279 0 
-279 264 0 
-279 539 0 
-274 -543 280 0 
-280 274 0 
-280 543 0 
-264 -555 281 0 
-281 264 0 
-281 555 0 
-274 -559 282 0 
-282 274 0 
-282 559 0 
279 280 281 282 274 -283 0 
-35 -544 36 0 
-36 35 0 
-36 544 0 
-35 -546 37 0 
-37 35 0 
-37 546 0 
-35 -560 38 0 
-38 35 0 
-38 560 0 
-35 -562 39 0 
-39 35 0 
-39 562 0 
36 37 38 39 -35 284 0 
-35 -544 40 0 
-40 35 0 
-40 544 0 
-44 -548 41 0 
-41 44 0 
-41 548 0 
-35 -560 42 0 
-42 35 0 
-42 560 0 
-44 -564 43 0 
-43 44 0 
-43 564 0 
40 41 42 43 35 -284 0 
-284 -545 285 0 
-285 284 0 
-285 545 0 
-284 -547 286 0 
-286 284 0 
-286 547 0 
-284 -561 287 0 
-287 284 0 
-287 561 0 
-284 -563 288 0 
-288 284 0 
-288 563 0 
285 286 287 288 -284 293 0 
-284 -545 289 0 
-289 284 0 
-289 545 0 
-294 -549 290 0 
-290 294 0 
-290 549 0 
-284 -561 291 0 
-291 284 0 
-291 561 0 
-294 -565 292 0 
-292 294 0 
-292 565 0 
289 290 291 292 284 -293 0 
-44 -548 45 0 
-45 44 0 
-45 548 0 
-44 -550 46 0 
-46 44 0 
-46 550 0 
-44 -564 47 0 
-47 44 0 
-47 564 0 
-44 -566 48 0 
-48 44 0 
-48 566 0 
45 46 47 48 -44 294 0 
-35 -546 49 0 
-49 35 0 
-49 546 0 
-44 -550 50 0 
-50 44 0 
-50 550 0 
-35 -562 51 0 
-51 35 0 
-51 562 0 
-44 -566 52 0 
-52 44 0 
-52 566 0 
49 50 51 52 44 -294 0 
-294 -549 295 0 
-295 294 0 
-295 549 0 
-294 -551 296 0 
-296 294 0 
-296 551 0 
-294 -565 297 0 
-297 294 0 
-297 565 0 
-294 -567 298 0 
-298 294 0 
-298 567 0 
295 296 297 298 -294 303 0 
-284 -547 299 0 
-299 284 0 
-299 547 0 
-294 -551 300 0 
-300 294 0 
-300 551 0 
-284 -563 301 0 
-301 284 0 
-301 563 0 
-294 -567 302 0 
-302 294 0 
-302 567 0 
299 300 301 302 294 -303 0 
-17 -568 53 0 
-53 17 0 
-53 568 0 
-35 -584 54 0 
-54 35 0 
-54 584 0 
53 54 304 0 
-17 -600 55 0 
-55 17 0 
-55 600 0 
-35 -616 56 0 
-56 35 0 
-56 616 0 
-264 -569 305 0 
-305 264 0 
-305 569 0 
-284 -585 306 0 
-306 284 0 
-306 585 0 
305 306 -304 309 0 
-264 -601 307 0 
-307 264 0 
-307 601 0 
-284 -617 308 0 
-308 284 0 
-308 617 0 
307 308 304 -309 0 
-17 -570 58 0 
-58 17 0 
-58 570 0 
-35 -586 59 0 
-59 35 0 
-59 586 0 
58 59 -57 310 0 
-17 -602 60 0 
-60 17 0 
-60 602 0 
-35 -618 61 0 
-61 35 0 
-61 618 0 
60 61 57 -310 0 
-264 -571 311 0 
-311 264 0 
-311 571 0 
-284 -587 312 0 
-312 284 0 
-312 587 0 
311 312 -310 315 0 
-264 -603 313 0 
-313 264 0 
-313 603 0 
-284 -619 314 0 
-314 284 0 
-314 619 0 
313 314 310 -315 0 
-17 -572 63 0 
-63 17 0 
-63 572 0 
-35 -588 64 0 
-64 35 0 
-64 588 0 
63 64 -62 316 0 
-17 -604 65 0 
-65 17 0 
-65 604 0 
-35 -620 66 0 
-66 35 0 
-66 620 0 
65 66 62 -316 0 
-264 -573 317 0 
-317 264 0 
-317 573 0 
-284 -589 318 0 
-318 284 0 
-318 589 0 
317 318 -316 321 0 
-264 -605 319 0 
-319 264 0 
-319 605 0 
-284 -621 320 0 
-320 284 0 
-320 621 0 
319 320 316 -321 0 
-17 -574 68 0 
-68 17 0 
-68 574 0 
-35 -590 69 0 
-69 35 0 
-69 590 0 
68 69 -67 322 0 
-17 -606 70 0 
-70 17 0 
-70 606 0 
-35 -622 71 0 
-71 35 0 
-71 622 0 
70 71 67 -322 0 
-264 -575 323 0 
-323 264 0 
-323 575 0 
-284 -591 324 0 
-324 284 0 
-324 591 0 
323 324 -322 327 0 
-264 -607 325 0 
-325 264 0 
-325 607 0 
-284 -623 326 0 
-326 284 0 
-326 623 0 
325 326 322 -327 0 
-26 -576 73 0 
-73 26 0 
-73 576 0 
-44 -592 74 0 
-74 44 0 
-74 592 0 
73 74 -72 328 0 
-26 -608 75 0 
-75 26 0 
-75 608 0 
-44 -624 76 0 
-76 44 0 
-76 624 0 
75 76 72 -328 0 
-274 -577 329 0 
-329 274 0 
-329 577 0 
-294 -593 330 0 
-330 294 0 
-330 593 0 
329 330 -328 333 0 
-274 -609 331 0 
-331 274 0 
-331 609 0 
-294 -625 332 0 
-332 294 0 
-332 625 0 
331 332 328 -333 0 
-26 -578 78 0 
-78 26 0 
-78 578 0 
-44 -594 79 0 
-79 44 0 
-79 594 0 
78 79 -77 334 0 
-26 -610 80 0 
-80 26 0 
-80 610 0 
-44 -626 81 0 
-81 44 0 
-81 626 0 
80 81 77 -334 0 
-274 -579 335 0 
-335 274 0 
-335 579 0 
-294 -595 336 0 
-336 294 0 
-336 595 0 
335 336 -334 339 0 
-274 -611 337 0 
-337 274 0 
-337 611 0 
-294 -627 338 0 
-338 294 0 
-338 627 0 
337 338 334 -339 0 
-26 -580 83 0 
-83 26 0 
-83 580 0 
-44 -596 84 0 
-84 44 0 
-84 596 0 
83 84 -82 340 0 
-26 -612 85 0 
-85 26 0 
-85 612 0 
-44 -628 86 0 
-86 44 0 
-86 628 0 
85 86 82 -340 0 
-274 -581 341 0 
-341 274 0 
-341 581 0 
-294 -597 342 0 
-342 294 0 
-342 597 0 
341 342 -340 345 0 
-274 -613 343 0 
-343 274 0 
-343 613 0 
-294 -629 344 0 
-344 294 0 
-344 629 0 
343 344 340 -345 0 
-26 -582 88 0 
-88 26 0 
-88 582 0 
-44 -598 89 0 
-89 44 0 
-89 598 0 
88 89 -87 346 0 
-26 -614 90 0 
-90 26 0 
-90 614 0 
-44 -630 91 0 
-91 44 0 
-91 630 0 
90 91 87 -346 0 
-274 -583 347 0 
-347 274 0 
-347 583 0 
-294 -599 348 0 
-348 294 0 
-348 599 0 
347 348 -346 351 0 
-274 -615 349 0 
-349 274 0 
-349 615 0 
-294 -631 350 0 
-350 294 0 
-350 631 0 
349 350 346 -351 0 
-92 352 0 
92 -352 0 
-352 353 0 
352 -353 0 
-93 354 0 
93 -354 0 
-354 355 0 
354 -355 0 
-94 356 0 
94 -356 0 
-356 357 0 
356 -357 0 
-95 358 0 
95 -358 0 
-358 359 0 
358 -359 0 
-96 360 0 
96 -360 0 
-360 361 0 
360 -361 0 
-97 362 0 
97 -362 0 
-362 363 0 
362 -363 0 
-17 -600 99 0 
-99 17 0 
-99 600 0 
-17 -602 100 0 
-100 17 0 
-100 602 0 
-17 -604 101 0 
-101 17 0 
-101 604 0 
-17 -606 102 0 
-102 17 0 
-102 606 0 
-26 -608 103 0 
-103 26 0 
-103 608 0 
-26 -610 104 0 
-104 26 0 
-104 610 0 
-26 -612 105 0 
-105 26 0 
-105 612 0 
-26 -614 106 0 
-106 26 0 
-106 614 0 
99 100 101 102 103 104 105 106 -98 364 0 
-17 -568 107 0 
-107 17 0 
-107 568 0 
-17 -570 108 0 
-108 17 0 
-108 570 0 
-17 -572 109 0 
-109 17 0 
-109 572 0 
-17 -574 110 0 
-110 17 0 
-110 574 0 
-26 -576 111 0 
-111 26 0 
-111 576 0 
-26 -578 112 0 
-112 26 0 
-112 578 0 
-26 -580 113 0 
-113 26 0 
-113 580 0 
-26 -582 114 0 
-114 26 0 
-114 582 0 
107 108 109 110 111 112 113 114 98 -364 0 
-264 -601 365 0 
-365 264 0 
-365 601 0 
-264 -603 366 0 
-366 264 0 
-366 603 0 
-264 -605 367 0 
-367 264 0 
-367 605 0 
-264 -607 368 0 
-368 264 0 
-368 607 0 
-274 -609 369 0 
-369 274 0 
-369 609 0 
-274 -611 370 0 
-370 274 0 
-370 611 0 
-274 -613 371 0 
-371 274 0 
-371 613 0 
-274 -615 372 0 
-372 274 0 
-372 615 0 
365 366 367 368 369 370 371 372 -364 381 0 
-264 -569 373 0 
-373 264 0 
-373 569 0 
-264 -571 374 0 
-374 264 0 
-374 571 0 
-264 -573 375 0 
-375 264 0 
-375 573 0 
-264 -575 376 0 
-376 264 0 
-376 575 0 
-274 -577 377 0 
-377 274 0 
-377 577 0 
-274 -579 378 0 
-378 274 0 
-378 579 0 
-274 -581 379 0 
-379 274 0 
-379 581 0 
-274 -583 380 0 
-380 274 0 
-380 583 0 
373 374 375 376 377 378 379 380 364 -381 0 
-35 -616 116 0 
-116 35 0 
-116 616 0 
-35 -618 117 0 
-117 35 0 
-117 618 0 
-35 -620 118 0 
-118 35 0 
-118 620 0 
-35 -622 119 0 
-119 35 0 
-119 622 0 
-44 -624 120 0 
-120 44 0 
-120 624 0 
-44 -626 121 0 
-121 44 0 
-121 626 0 
-44 -628 122 0 
-122 44 0 
-122 628 0 
-44 -630 123 0 
-123 44 0 
-123 630 0 
116 117 118 119 120 121 122 123 -115 382 0 
-35 -584 124 0 
-124 35 0 
-124 584 0 
-35 -586 125 0 
-125 35 0 
-125 586 0 
-35 -588 126 0 
-126 35 0 
-126 588 0 
-35 -590 127 0 
-127 35 0 
-127 590 0 
-44 -592 128 0 
-128 44 0 
-128 592 0 
-44 -594 129 0 
-129 44 0 
-129 594 0 
-44 -596 130 0 
-130 44 0 
-130 596 0 
-44 -598 131 0 
-131 44 0 
-131 598 0 
124 125 126 127 128 129 130 131 115 -382 0 
-284 -617 383 0 
-383 284 0 
-383 617 0 
-284 -619 384 0 
-384 284 0 
-384 619 0 
-284 -621 385 0 
-385 284 0 
-385 621 0 
-284 -623 386 0 
-386 284 0 
-386 623 0 
-294 -625 387 0 
-387 294 0 
-387 625 0 
-294 -627 388 0 
-388 294 0 
-388 627 0 
-294 -629 389 0 
-389 294 0 
-389 629 0 
-294 -631 390 0 
-390 294 0 
-390 631 0 
383 384 385 386 387 388 389 390 -382 399 0 
-284 -585 391 0 
-391 284 0 
-391 585 0 
-284 -587 392 0 
-392 284 0 
-392 587 0 
-284 -589 393 0 
-393 284 0 
-393 589 0 
-284 -591 394 0 
-394 284 0 
-394 591 0 
-294 -593 395 0 
-395 294 0 
-395 593 0 
-294 -595 396 0 
-396 294 0 
-396 595 0 
-294 -597 397 0 
-397 294 0 
-397 597 0 
-294 -599 398 0 
-398 294 0 
-398 599 0 
391 392 393 394 395 396 397 398 382 -399 0 
-132 -632 133 0 
-133 132 0 
-133 632 0 
133 -132 400 0 
132 -400 0 
-400 -633 401 0 
-401 400 0 
-401 633 0 
401 -400 402 0 
400 -402 0 
-134 -634 135 0 
-135 134 0 
-135 634 0 
135 -134 403 0 
134 -403 0 
-403 -635 404 0 
-404 403 0 
-404 635 0 
404 -403 405 0 
403 -405 0 
-136 -636 137 0 
-137 136 0 
-137 636 0 
137 -136 406 0 
136 -406 0 
-406 -637 407 0 
-407 406 0 
-407 637 0 
407 -406 408 0 
406 -408 0 
-138 -638 139 0 
-139 138 0 
-139 638 0 
139 -138 409 0 
138 -409 0 
-409 -639 410 0 
-410 409 0 
-410 639 0 
410 -409 411 0 
409 -411 0 
-140 -640 141 0 
-141 140 0 
-141 640 0 
141 -140 412 0 
140 -412 0 
-412 -641 413 0 
-413 412 0 
-413 641 0 
413 -412 414 0 
412 -414 0 
-142 -642 143 0 
-143 142 0 
-143 642 0 
143 -142 415 0 
142 -415 0 
-415 -643 416 0 
-416 415 0 
-416 643 0 
416 -415 417 0 
415 -417 0 
-144 -644 145 0 
-145 144 0 
-145 644 0 
145 -144 418 0 
144 -418 0 
-418 -645 419 0 
-419 418 0 
-419 645 0 
419 -418 420 0 
418 -420 0 
-146 -646 147 0 
-147 146 0 
-147 646 0 
147 -146 421 0 
146 -421 0 
-421 -647 422 0 
-422 421 0 
-422 647 0 
422 -421 423 0 
421 -423 0 
-148 -648 149 0 
-149 148 0 
-149 648 0 
149 -148 424 0 
148 -424 0 
-424 -649 425 0 
-425 424 0 
-425 649 0 
425 -424 426 0 
424 -426 0 
-150 -650 151 0 
-151 150 0 
-151 650 0 
151 -150 427 0 
150 -427 0 
-427 -651 428 0 
-428 427 0 
-428 651 0 
428 -427 429 0 
427 -429 0 
-152 -652 153 0 
-153 152 0 
-153 652 0 
153 -152 430 0 
152 -430 0 
-430 -653 431 0 
-431 430 0 
-431 653 0 
431 -430 432 0 
430 -432 0 
-154 -654 155 0 
-155 154 0 
-155 654 0 
155 -154 433 0 
154 -433 0 
-433 -655 434 0 
-434 433 0 
-434 655 0 
434 -433 435 0 
433 -435 0 
-156 -656 157 0 
-157 156 0 
-157 656 0 
157 -156 436 0 
156 -436 0 
-436 -657 437 0 
-437 436 0 
-437 657 0 
437 -436 438 0 
436 -438 0 
-158 -658 159 0 
-159 158 0 
-159 658 0 
159 -158 439 0 
158 -439 0 
-439 -659 440 0 
-440 439 0 
-440 659 0 
440 -439 441 0 
439 -441 0 
-160 -660 161 0 
-161 160 0 
-161 660 0 
161 -160 442 0 
160 -442 0 
-442 -661 443 0 
-443 442 0 
-443 661 0 
443 -442 444 0 
442 -444 0 
-162 -662 163 0 
-163 162 0 
-163 662 0 
163 -162 445 0 
162 -445 0 
-445 -663 446 0 
-446 445 0 
-446 663 0 
446 -445 447 0 
445 -447 0 
-164 -664 165 0 
-165 164 0 
-165 664 0 
165 -164 448 0 
164 -448 0 
-448 -665 449 0 
-449 448 0 
-449 665 0 
449 -448 450 0 
448 -450 0 
-166 -666 167 0 
-167 166 0 
-167 666 0 
167 -166 451 0 
166 -451 0 
-451 -667 452 0 
-452 451 0 
-452 667 0 
452 -451 453 0 
451 -453 0 
-168 -668 169 0 
-169 168 0 
-169 668 0 
169 -168 454 0 
168 -454 0 
-454 -669 455 0 
-455 454 0 
-455 669 0 
455 -454 456 0 
454 -456 0 
-170 -670 171 0 
-171 170 0 
-171 670 0 
171 -170 457 0 
170 -457 0 
-457 -671 458 0 
-458 457 0 
-458 671 0 
458 -457 459 0 
457 -459 0 
-172 -672 173 0 
-173 172 0 
-173 672 0 
173 -172 460 0 
172 -460 0 
-460 -673 461 0 
-461 460 0 
-461 673 0 
461 -460 462 0 
460 -462 0 
-174 -674 175 0 
-175 174 0 
-175 674 0 
175 -174 463 0 
174 -463 0 
-463 -675 464 0 
-464 463 0 
-464 675 0 
464 -463 465 0 
463 -465 0 
-176 -676 177 0 
-177 176 0 
-177 676 0 
177 -176 466 0 
176 -466 0 
-466 -677 467 0 
-467 466 0 
-467 677 0 
467 -466 468 0 
466 -468 0 
-178 -678 179 0 
-179 178 0 
-179 678 0 
179 -178 469 0 
178 -469 0 
-469 -679 470 0 
-470 469 0 
-470 679 0 
470 -469 471 0 
469 -471 0 
-180 -680 181 0 
-181 180 0 
-181 680 0 
181 -180 472 0 
180 -472 0 
-472 -681 473 0 
-473 472 0 
-473 681 0 
473 -472 474 0 
472 -474 0 
-182 -682 183 0 
-183 182 0 
-183 682 0 
183 -182 475 0 
182 -475 0 
-475 -683 476 0 
-476 475 0 
-476 683 0 
476 -475 477 0 
475 -477 0 
-184 -684 185 0 
-185 184 0 
-185 684 0 
185 -184 478 0 
184 -478 0 
-478 -685 479 0 
-479 478 0 
-479 685 0 
479 -478 480 0 
478 -480 0 
-186 -686 187 0 
-187 186 0 
-187 686 0 
187 -186 481 0 
186 -481 0 
-481 -687 482 0 
-482 481 0 
-482 687 0 
482 -481 483 0 
481 -483 0 
-188 -688 189 0 
-189 188 0 
-189 688 0 
189 -188 484 0 
188 -484 0 
-484 -689 485 0 
-485 484 0 
-485 689 0 
485 -484 486 0 
484 -486 0 
-190 -690 191 0 
-191 190 0 
-191 690 0 
191 -190 487 0 
190 -487 0 
-487 -691 488 0 
-488 487 0 
-488 691 0 
488 -487 489 0 
487 -489 0 
-192 -692 193 0 
-193 192 0 
-193 692 0 
193 -192 490 0 
192 -490 0 
-490 -693 491 0 
-491 490 0 
-491 693 0 
491 -490 492 0 
490 -492 0 
-194 -694 195 0 
-195 194 0 
-195 694 0 
195 -194 493 0 
194 -493 0 
-493 -695 494 0 
-494 493 0 
-494 695 0 
494 -493 495 0 
493 -495 0 
-196 496 0 
-132 -632 197 0 
-197 132 0 
-197 632 0 
-134 -634 198 0 
-198 134 0 
-198 634 0 
-136 -636 199 0 
-199 136 0 
-199 636 0 
-138 -638 200 0 
-200 138 0 
-200 638 0 
-140 -640 201 0 
-201 140 0 
-201 640 0 
-142 -642 202 0 
-202 142 0 
-202 642 0 
-144 -644 203 0 
-203 144 0 
-203 644 0 
-146 -646 204 0 
-204 146 0 
-204 646 0 
197 198 199 200 201 202 203 204 196 -496 0 
-496 505 0 
-400 -633 497 0 
-497 400 0 
-497 633 0 
-403 -635 498 0 
-498 403 0 
-498 635 0 
-406 -637 499 0 
-499 406 0 
-499 637 0 
-409 -639 500 0 
-500 409 0 
-500 639 0 
-412 -641 501 0 
-501 412 0 
-501 641 0 
-415 -643 502 0 
-502 415 0 
-502 643 0 
-418 -645 503 0 
-503 418 0 
-503 645 0 
-421 -647 504 0 
-504 421 0 
-504 647 0 
497 498 499 500 501 502 503 504 496 -505 0 
-205 506 0 
-148 -648 206 0 
-206 148 0 
-206 648 0 
-150 -650 207 0 
-207 150 0 
-207 650 0 
-152 -652 208 0 
-208 152 0 
-208 652 0 
-154 -654 209 0 
-209 154 0 
-209 654 0 
-156 -656 210 0 
-210 156 0 
-210 656 0 
-158 -658 211 0 
-211 158 0 
-211 658 0 
-160 -660 212 0 
-212 160 0 
-212 660 0 
-162 -662 213 0 
-213 162 0 
-213 662 0 
206 207 208 209 210 211 212 213 205 -506 0 
-506 515 0 
-424 -649 507 0 
-507 424 0 
-507 649 0 
-427 -651 508 0 
-508 427 0 
-508 651 0 
-430 -653 509 0 
-509 430 0 
-509 653 0 
-433 -655 510 0 
-510 433 0 
-510 655 0 
-436 -657 511 0 
-511 436 0 
-511 657 0 
-439 -659 512 0 
-512 439 0 
-512 659 0 
-442 -661 513 0 
-513 442 0 
-513 661 0 
-445 -663 514 0 
-514 445 0 
-514 663 0 
507 508 509 510 511 512 513 514 506 -515 0 
-214 516 0 
-164 -664 215 0 
-215 164 0 
-215 664 0 
-166 -666 216 0 
-216 166 0 
-216 666 0 
-168 -668 217 0 
-217 168 0 
-217 668 0 
-170 -670 218 0 
-218 170 0 
-218 670 0 
-172 -672 219 0 
-219 172 0 
-219 672 0 
-174 -674 220 0 
-220 174 0 
-220 674 0 
-176 -676 221 0 
-221 176 0 
-221 676 0 
-178 -678 222 0 
-222 178 0 
-222 678 0 
215 216 217 218 219 220 221 222 214 -516 0 
-516 525 0 
-448 -665 517 0 
-517 448 0 
-517 665 0 
-451 -667 518 0 
-518 451 0 
-518 667 0 
-454 -669 519 0 
-519 454 0 
-519 669 0 
-457 -671 520 0 
-520 457 0 
-520 671 0 
-460 -673 521 0 
-521 460 0 
-521 673 0 
-463 -675 522 0 
-522 463 0 
-522 675 0 
-466 -677 523 0 
-523 466 0 
-523 677 0 
-469 -679 524 0 
-524 469 0 
-524 679 0 
517 518 519 520 521 522 523 524 516 -525 0 
-223 526 0 
-180 -680 224 0 
-224 180 0 
-224 680 0 
-182 -682 225 0 
-225 182 0 
-225 682 0 
-184 -684 226 0 
-226 184 0 
-226 684 0 
-186 -686 227 0 
-227 186 0 
-227 686 0 
-188 -688 228 0 
-228 188 0 
-228 688 0 
-190 -690 229 0 
-229 190 0 
-229 690 0 
-192 -692 230 0 
-230 192 0 
-230 692 0 
-194 -694 231 0 
-231 194 0 
-231 694 0 
224 225 226 227 228 229 230 231 223 -526 0 
-526 535 0 
-472 -681 527 0 
-527 472 0 
-527 681 0 
-475 -683 528 0 
-528 475 0 
-528 683 0 
-478 -685 529 0 
-529 478 0 
-529 685 0 
-481 -687 530 0 
-530 481 0 
-530 687 0 
-484 -689 531 0 
-531 484 0 
-531 689 0 
-487 -691 532 0 
-532 487 0 
-532 691 0 
-490 -693 533 0 
-533 490 0 
-533 693 0 
-493 -695 534 0 
-534 493 0 
-534 695 0 
527 528 529 530 531 532 533 534 526 -535 0 
-536 -538 0 
-536 -540 0 
-536 -552 0 
-536 -554 0 
-536 -556 0 
-537 -539 0 
-537 -541 0 
-537 -553 0 
-537 -555 0 
-537 -557 0 
-538 -540 0 
-538 -542 0 
-538 -552 0 
-538 -556 0 
-538 -558 0 
-539 -541 0 
-539 -543 0 
-539 -553 0 
-539 -557 0 
-539 -559 0 
-540 -542 0 
-540 -552 0 
-540 -554 0 
-540 -558 0 
-541 -543 0 
-541 -553 0 
-541 -555 0 
-541 -559 0 
-542 -554 0 
-542 -556 0 
-542 -558 0 
-543 -555 0 
-543 -557 0 
-543 -559 0 
-544 -546 0 
-544 -548 0 
-544 -560 0 
-544 -562 0 
-544 -564 0 
-545 -547 0 
-545 -549 0 
-545 -561 0 
-545 -563 0 
-545 -565 0 
-546 -548 0 
-546 -550 0 
-546 -560 0 
-546 -564 0 
-546 -566 0 
-547 -549 0 
-547 -551 0 
-547 -561 0 
-547 -565 0 
-547 -567 0 
-548 -550 0 
-548 -560 0 
-548 -562 0 
-548 -566 0 
-549 -551 0 
-549 -561 0 
-549 -563 0 
-549 -567 0 
-550 -562 0 
-550 -564 0 
-550 -566 0 
-551 -563 0 
-551 -565 0 
-551 -567 0 
-552 -554 0 
-552 -556 0 
-553 -555 0 
-553 -557 0 
-554 -556 0 
-554 -558 0 
-555 -557 0 
-555 -559 0 
-556 -558 0 
-557 -559 0 
-560 -562 0 
-560 -564 0 
-561 -563 0 
-561 -565 0 
-562 -564 0 
-562 -566 0 
-563 -565 0 
-563 -567 0 
-564 -566 0 
-565 -567 0 
-568 -600 0 
-568 -602 0 
-568 -604 0 
-568 -606 0 
-568 -608 0 
-568 -610 0 
-568 -612 0 
-568 -614 0 
-568 -616 0 
-569 -601 0 
-569 -603 0 
-569 -605 0 
-569 -607 0 
-569 -609 0 
-569 -611 0 
-569 -613 0 
-569 -615 0 
-569 -617 0 
-570 -600 0 
-570 -602 0 
-570 -604 0 
-570 -606 0 
-570 -608 0 
-570 -610 0 
-570 -612 0 
-570 -614 0 
-570 -618 0 
-571 -601 0 
-571 -603 0 
-571 -605 0 
-571 -607 0 
-571 -609 0 
-571 -611 0 
-571 -613 0 
-571 -615 0 
-571 -619 0 
-572 -600 0 
-572 -602 0 
-572 -604 0 
-572 -606 0 
-572 -608 0 
-572 -610 0 
-572 -612 0 
-572 -614 0 
-572 -620 0 
-573 -601 0 
-573 -603 0 
-573 -605 0 
-573 -607 0 
-573 -609 0 
-573 -611 0 
-573 -613 0 
-573 -615 0 
-573 -621 0 
-574 -600 0 
-574 -602 0 
-574 -604 0 
-574 -606 0 
-574 -608 0 
-574 -610 0 
-574 -612 0 
-574 -614 0 
-574 -622 0 
-575 -601 0 
-575 -603 0 
-575 -605 0 
-575 -607 0 
-575 -609 0 
-575 -611 0 
-575 -613 0 
-575 -615 0 
-575 -623 0 
-576 -600 0 
-576 -602 0 
-576 -604 0 
-576 -606 0 
-576 -608 0 
-576 -610 0 
-576 -612 0 
-576 -614 0 
-576 -624 0 
-577 -601 0 
-577 -603 0 
-577 -605 0 
-577 -607 0 
-577 -609 0 
-577 -611 0 
-577 -613 0 
-577 -615 0 
-577 -625 0 
-578 -600 0 
-578 -602 0 
-578 -604 0 
-578 -606 0 
-578 -608 0 
-578 -610 0 
-578 -612 0 
-578 -614 0 
-578 -626 0 
-579 -601 0 
-579 -603 0 
-579 -605 0 
-579 -607 0 
-579 -609 0 
-579 -611 0 
-579 -613 0 
-579 -615 0 
-579 -627 0 
-580 -600 0 
-580 -602 0 
-580 -604 0 
-580 -606 0 
-580 -608 0 
-580 -610 0 
-580 -612 0 
-580 -614 0 
-580 -628 0 
-581 -601 0 
-581 -603 0 
-581 -605 0 
-581 -607 0 
-581 -609 0 
-581 -611 0 
-581 -613 0 
-581 -615 0 
-581 -629 0 
-582 -600 0 
-582 -602 0 
-582 -604 0 
-582 -606 0 
-582 -608 0 
-582 -610 0 
-582 -612 0 
-582 -614 0 
-582 -630 0 
-583 -601 0 
-583 -603 0 
-583 -605 0 
-583 -607 0 
-583 -609 0 
-583 -611 0 
-583 -613 0 
-583 -615 0 
-583 -631 0 
-584 -600 0 
-584 -616 0 
-584 -618 0 
-584 -620 0 
-584 -622 0 
-584 -624 0 
-584 -626 0 
-584 -628 0 
-584 -630 0 
-585 -601 0 
-585 -617 0 
-585 -619 0 
-585 -621 0 
-585 -623 0 
-585 -625 0 
-585 -627 0 
-585 -629 0 
-585 -631 0 
-586 -602 0 
-586 -616 0 
-586 -618 0 
-586 -620 0 
-586 -622 0 
-586 -624 0 
-586 -626 0 
-586 -628 0 
-586 -630 0 
-587 -603 0 
-587 -617 0 
-587 -619 0 
-587 -621 0 
-587 -623 0 
-587 -625 0 
-587 -627 0 
-587 -629 0 
-587 -631 0 
-588 -604 0 
-588 -616 0 
-588 -618 0 
-588 -620 0 
-588 -622 0 
-588 -624 0 
-588 -626 0 
-588 -628 0 
-588 -630 0 
-589 -605 0 
-589 -617 0 
-589 -619 0 
-589 -621 0 
-589 -623 0 
-589 -625 0 
-589 -627 0 
-589 -629 0 
-589 -631 0 
-590 -606 0 
-590 -616 0 
-590 -618 0 
-590 -620 0 
-590 -622 0 
-590 -624 0 
-590 -626 0 
-590 -628 0 
-590 -630 0 
-591 -607 0 
-591 -617 0 
-591 -619 0 
-591 -621 0 
-591 -623 0 
-591 -625 0 
-591 -627 0 
-591 -629 0 
-591 -631 0 
-592 -608 0 
-592 -616 0 
-592 -618 0 
-592 -620 0 
-592 -622 0 
-592 -624 0 
-592 -626 0 
-592 -628 0 
-592 -630 0 
-593 -609 0 
-593 -617 0 
-593 -619 0 
-593 -621 0 
-593 -623 0 
-593 -625 0 
-593 -627 0 
-593 -629 0 
-593 -631 0 
-594 -610 0 
-594 -616 0 
-594 -618 0 
-594 -620 0 
-594 -622 0 
-594 -624 0 
-594 -626 0 
-594 -628 0 
-594 -630 0 
-595 -611 0 
-595 -617 0 
-595 -619 0 
-595 -621 0 
-595 -623 0 
-595 -625 0 
-595 -627 0 
-595 -629 0 
-595 -631 0 
-596 -612 0 
-596 -616 0 
-596 -618 0 
-596 -620 0 
-596 -622 0 
-596 -624 0 
-596 -626 0 
-596 -628 0 
-596 -630 0 
-597 -613 0 
-597 -617 0 
-597 -619 0 
-597 -621 0 
-597 -623 0 
-597 -625 0 
-597 -627 0 
-597 -629 0 
-597 -631 0 
-598 -614 0 
-598 -616 0 
-598 -618 0 
-598 -620 0 
-598 -622 0 
-598 -624 0 
-598 -626 0 
-598 -628 0 
-598 -630 0 
-599 -615 0 
-599 -617 0 
-599 -619 0 
-599 -621 0 
-599 -623 0 
-599 -625 0 
-599 -627 0 
-599 -629 0 
-599 -631 0 
